db/data/1065225531130872671519989230811781612646.z3.out
-------------------
2500.184658759
